\ LP format - for model browsing. Use MPS format to capture full model detail.
Minimize
  0 B18(0) + 0 B20(0) + 0 B22(0) + 0 B23(0) + 0 B26(0) + 0 B28(0) + 0 B30(0)
   + 0 B32(0) + 0 B36(0) + 0 B38(0) + 0 B39(0) + 0 B42(0) + 0 B43(0)
   + 0 B45(0) + 0 B46(0) + 0 B47(0) + 0 B48(0) + 0 B53(0) + 0 B54(0)
   + 0 B55(0) + 0 B56(0) + 0 B58(0) + 0 B60(0) + 0 B63(0) + 0 B64(0)
   + 0 B65(0) + 0 B68(0) + 0 B69(0) + 0 B72(0) + 0 B73(0) + 0 B74(0)
   + 0 B75(0) + 0 B76(0) + 0 B77(0) + 0 B78(0) + 0 B80(0) + 0 B81(0)
   + 0 B82(0) + 0 B83(0) + 0 B84(0) + 0 B85(0) + 0 B86(0) + 0 B88(0)
   + 0 B89(0) + 0 B90(0) + 0 B91(0) + 0 B92(0) + 0 B93(0) + 0 B94(0)
   + 0 B95(0) + 0 B96(0) + 0 B97(0) + 0 B98(0) + I117(1)
Subject To
 c0: B0(11) + B1(7) = 1
 c1: B2(11) + B3(11) = 1
 c2: B4(8) + B5(12) = 1
 c3: B6(13) + B7(7) = 1
 c4: B8(9) + B9(13) = 1
 c5: B10(8) + B11(14) = 1
 c6: B12(11) + B13(7) = 1
 c7: B14(9) + B15(11) = 1
 c8: B16(8) + B17(10) = 1
 c9: - 1e+06 B0(11) + C99(12) <= 0
 c10: - 1e+06 B1(7) + C100(8) <= 0
 c11: - 1e+06 B2(11) + C101(12) <= 0
 c12: - 1e+06 B3(11) + C102(12) <= 0
 c13: - 1e+06 B4(8) + C103(8) <= 0
 c14: - 1e+06 B5(12) + C104(12) <= 0
 c15: - 1e+06 B6(13) + C105(14) <= 0
 c16: - 1e+06 B7(7) + C106(8) <= 0
 c17: - 1e+06 B8(9) + C107(10) <= 0
 c18: - 1e+06 B9(13) + C108(14) <= 0
 c19: - 1e+06 B10(8) + C109(8) <= 0
 c20: - 1e+06 B11(14) + C110(14) <= 0
 c21: - 1e+06 B12(11) + C111(12) <= 0
 c22: - 1e+06 B13(7) + C112(8) <= 0
 c23: - 1e+06 B14(9) + C113(10) <= 0
 c24: - 1e+06 B15(11) + C114(12) <= 0
 c25: - 1e+06 B16(8) + C115(8) <= 0
 c26: - 1e+06 B17(10) + C116(10) <= 0
 c27: - 1e+06 B0(11) - 1e+06 B3(11) - 1e+06 B19(2) + C99(12) - C102(12)
   >= -2.999667e+06
 c28: - 1e+06 B0(11) - 1e+06 B3(11) + 1e+06 B19(2) - C99(12) + C102(12)
   >= -1.999637e+06
 c29: - 1e+06 B1(7) - 1e+06 B7(7) - 1e+06 B21(2) + C100(8) - C106(8)
   >= -2.999544e+06
 c30: - 1e+06 B1(7) - 1e+06 B7(7) + 1e+06 B21(2) - C100(8) + C106(8)
   >= -1.99963e+06
 c31: - 1e+06 B0(11) - 1e+06 B12(11) - 1e+06 B24(4) + C99(12) - C111(12)
   >= -2.999596e+06
 c32: - 1e+06 B0(11) - 1e+06 B12(11) + 1e+06 B24(4) - C99(12) + C111(12)
   >= -1.999592e+06
 c33: - 1e+06 B1(7) - 1e+06 B13(7) - 1e+06 B24(4) + C100(8) - C112(8)
   >= -2.999639e+06
 c34: - 1e+06 B1(7) - 1e+06 B13(7) + 1e+06 B24(4) - C100(8) + C112(8)
   >= -1.99914e+06
 c35: - 1e+06 B0(11) - 1e+06 B15(11) - 1e+06 B25(2) + C99(12) - C114(12)
   >= -2.999414e+06
 c36: - 1e+06 B0(11) - 1e+06 B15(11) + 1e+06 B25(2) - C99(12) + C114(12)
   >= -1.999538e+06
 c37: - 1e+06 B0(11) - 1e+06 B3(11) - 1e+06 B27(2) - C99(12) + C102(12)
   >= -2.999637e+06
 c38: - 1e+06 B0(11) - 1e+06 B3(11) + 1e+06 B27(2) + C99(12) - C102(12)
   >= -1.999667e+06
 c39: - 1e+06 B2(11) - 1e+06 B5(12) - 1e+06 B29(2) + C101(12) - C104(12)
   >= -2.999759e+06
 c40: - 1e+06 B2(11) - 1e+06 B5(12) + 1e+06 B29(2) - C101(12) + C104(12)
   >= -1.999237e+06
 c41: - 1e+06 B2(11) - 1e+06 B8(9) - 1e+06 B31(2) + C101(12) - C107(10)
   >= -2.999858e+06
 c42: - 1e+06 B2(11) - 1e+06 B8(9) + 1e+06 B31(2) - C101(12) + C107(10)
   >= -1.999669e+06
 c43: - 1e+06 B3(11) - 1e+06 B12(11) - 1e+06 B33(2) + C102(12) - C111(12)
   >= -2.999138e+06
 c44: - 1e+06 B3(11) - 1e+06 B12(11) + 1e+06 B33(2) - C102(12) + C111(12)
   >= -1.999666e+06
 c45: - 1e+06 B3(11) - 1e+06 B15(11) - 1e+06 B34(2) + C102(12) - C114(12)
   >= -2.999265e+06
 c46: - 1e+06 B3(11) - 1e+06 B15(11) + 1e+06 B34(2) - C102(12) + C114(12)
   >= -1.999362e+06
 c47: - 1e+06 B2(11) - 1e+06 B17(10) - 1e+06 B35(2) + C101(12) - C116(10)
   >= -2.999626e+06
 c48: - 1e+06 B2(11) - 1e+06 B17(10) + 1e+06 B35(2) - C101(12) + C116(10)
   >= -1.999663e+06
 c49: - 1e+06 B2(11) - 1e+06 B5(12) - 1e+06 B37(2) - C101(12) + C104(12)
   >= -2.999237e+06
 c50: - 1e+06 B2(11) - 1e+06 B5(12) + 1e+06 B37(2) + C101(12) - C104(12)
   >= -1.999759e+06
 c51: - 1e+06 B5(12) - 1e+06 B8(9) - 1e+06 B40(2) + C104(12) - C107(10)
   >= -2.999289e+06
 c52: - 1e+06 B5(12) - 1e+06 B8(9) + 1e+06 B40(2) - C104(12) + C107(10)
   >= -1.999231e+06
 c53: - 1e+06 B4(8) - 1e+06 B10(8) - 1e+06 B41(2) + C103(8) - C109(8)
   >= -2.999585e+06
 c54: - 1e+06 B4(8) - 1e+06 B10(8) + 1e+06 B41(2) - C103(8) + C109(8)
   >= -1.999659e+06
 c55: - 1e+06 B4(8) - 1e+06 B16(8) - 1e+06 B44(4) + C103(8) - C115(8)
   >= -2.999789e+06
 c56: - 1e+06 B4(8) - 1e+06 B16(8) + 1e+06 B44(4) - C103(8) + C115(8)
   >= -1.999503e+06
 c57: - 1e+06 B5(12) - 1e+06 B17(10) - 1e+06 B44(4) + C104(12) - C116(10)
   >= -2.999883e+06
 c58: - 1e+06 B5(12) - 1e+06 B17(10) + 1e+06 B44(4) - C104(12) + C116(10)
   >= -1.999759e+06
 c59: - 1e+06 B6(13) - 1e+06 B9(13) - 1e+06 B49(2) + C105(14) - C108(14)
   >= -2.999615e+06
 c60: - 1e+06 B6(13) - 1e+06 B9(13) + 1e+06 B49(2) - C105(14) + C108(14)
   >= -1.999115e+06
 c61: - 1e+06 B6(13) - 1e+06 B11(14) - 1e+06 B50(2) + C105(14) - C110(14)
   >= -2.998825e+06
 c62: - 1e+06 B6(13) - 1e+06 B11(14) + 1e+06 B50(2) - C105(14) + C110(14)
   >= -1.999794e+06
 c63: - 1e+06 B7(7) - 1e+06 B13(7) - 1e+06 B51(2) + C106(8) - C112(8)
   >= -2.999648e+06
 c64: - 1e+06 B7(7) - 1e+06 B13(7) + 1e+06 B51(2) - C106(8) + C112(8)
   >= -1.99967e+06
 c65: - 1e+06 B6(13) - 1e+06 B14(9) - 1e+06 B52(2) + C105(14) - C113(10)
   >= -2.999765e+06
 c66: - 1e+06 B6(13) - 1e+06 B14(9) + 1e+06 B52(2) - C105(14) + C113(10)
   >= -1.999559e+06
 c67: - 1e+06 B6(13) - 1e+06 B9(13) - 1e+06 B57(2) - C105(14) + C108(14)
   >= -2.999115e+06
 c68: - 1e+06 B6(13) - 1e+06 B9(13) + 1e+06 B57(2) + C105(14) - C108(14)
   >= -1.999615e+06
 c69: - 1e+06 B9(13) - 1e+06 B11(14) - 1e+06 B59(2) + C108(14) - C110(14)
   >= -2.999637e+06
 c70: - 1e+06 B9(13) - 1e+06 B11(14) + 1e+06 B59(2) - C108(14) + C110(14)
   >= -1.999601e+06
 c71: - 1e+06 B9(13) - 1e+06 B14(9) - 1e+06 B61(2) + C108(14) - C113(10)
   >= -2.999105e+06
 c72: - 1e+06 B9(13) - 1e+06 B14(9) + 1e+06 B61(2) - C108(14) + C113(10)
   >= -1.99939e+06
 c73: - 1e+06 B8(9) - 1e+06 B17(10) - 1e+06 B62(2) + C107(10) - C116(10)
   >= -2.999683e+06
 c74: - 1e+06 B8(9) - 1e+06 B17(10) + 1e+06 B62(2) - C107(10) + C116(10)
   >= -1.999694e+06
 c75: - 1e+06 B6(13) - 1e+06 B11(14) - 1e+06 B66(2) - C105(14) + C110(14)
   >= -2.999794e+06
 c76: - 1e+06 B6(13) - 1e+06 B11(14) + 1e+06 B66(2) + C105(14) - C110(14)
   >= -1.998825e+06
 c77: - 1e+06 B9(13) - 1e+06 B11(14) - 1e+06 B67(2) - C108(14) + C110(14)
   >= -2.999601e+06
 c78: - 1e+06 B9(13) - 1e+06 B11(14) + 1e+06 B67(2) + C108(14) - C110(14)
   >= -1.999637e+06
 c79: - 1e+06 B11(14) - 1e+06 B14(9) - 1e+06 B70(2) + C110(14) - C113(10)
   >= -2.999284e+06
 c80: - 1e+06 B11(14) - 1e+06 B14(9) + 1e+06 B70(2) - C110(14) + C113(10)
   >= -1.99977e+06
 c81: - 1e+06 B10(8) - 1e+06 B16(8) - 1e+06 B71(2) + C109(8) - C115(8)
   >= -2.999349e+06
 c82: - 1e+06 B10(8) - 1e+06 B16(8) + 1e+06 B71(2) - C109(8) + C115(8)
   >= -1.998721e+06
 c83: - 1e+06 B12(11) - 1e+06 B15(11) - 1e+06 B79(2) + C111(12) - C114(12)
   >= -2.999805e+06
 c84: - 1e+06 B12(11) - 1e+06 B15(11) + 1e+06 B79(2) - C111(12) + C114(12)
   >= -1.999638e+06
 c85: - 1e+06 B12(11) - 1e+06 B15(11) - 1e+06 B87(2) - C111(12) + C114(12)
   >= -2.999638e+06
 c86: - 1e+06 B12(11) - 1e+06 B15(11) + 1e+06 B87(2) + C111(12) - C114(12)
   >= -1.999805e+06
 c87: C99(12) >= 0
 c88: C100(8) >= 0
 c89: C101(12) >= 0
 c90: C102(12) >= 0
 c91: C103(8) >= 0
 c92: - 480 B4(8) + C103(8) >= 0
 c93: C104(12) >= 0
 c94: - 480 B5(12) + C104(12) >= 0
 c95: C105(14) >= 0
 c96: C106(8) >= 0
 c97: C107(10) >= 0
 c98: C108(14) >= 0
 c99: C109(8) >= 0
 c100: - 480 B10(8) + C109(8) >= 0
 c101: C110(14) >= 0
 c102: - 480 B11(14) + C110(14) >= 0
 c103: C111(12) >= 0
 c104: C112(8) >= 0
 c105: C113(10) >= 0
 c106: C114(12) >= 0
 c107: C115(8) >= 0
 c108: - 480 B16(8) + C115(8) >= 0
 c109: C116(10) >= 0
 c110: - 480 B17(10) + C116(10) >= 0
 c111: - 130 B2(11) - 140 B3(11) + C99(12) + C100(8) - C101(12) - C102(12)
   >= 0
 c112: - 117 B4(8) - 125 B5(12) + C101(12) + C102(12) - C103(8) - C104(12)
   >= 0
 c113: - 66 B8(9) - 55 B9(13) + C105(14) + C106(8) - C107(10) - C108(14)
   >= 0
 c114: - 214 B10(8) - 150 B11(14) + C107(10) + C108(14) - C109(8)
   - C110(14) >= 0
 c115: - 80 B14(9) - 70 B15(11) + C111(12) + C112(8) - C113(10) - C114(12)
   >= 0
 c116: - 87 B16(8) - 62 B17(10) + C113(10) + C114(12) - C115(8) - C116(10)
   >= 0
 c117: - 150 B0(11) - 160 B1(7) - 65 B6(13) - 78 B7(7) - 190 B12(11)
   - 100 B13(7) - C99(12) - C100(8) - C105(14) - C106(8) - C111(12)
   - C112(8) + I117(1) >= 0
Bounds
Binaries
 B0(11) B1(7) B2(11) B3(11) B4(8) B5(12) B6(13) B7(7) B8(9) B9(13) B10(8)
 B11(14) B12(11) B13(7) B14(9) B15(11) B16(8) B17(10) B18(0) B19(2) B20(0)
 B21(2) B22(0) B23(0) B24(4) B25(2) B26(0) B27(2) B28(0) B29(2) B30(0)
 B31(2) B32(0) B33(2) B34(2) B35(2) B36(0) B37(2) B38(0) B39(0) B40(2)
 B41(2) B42(0) B43(0) B44(4) B45(0) B46(0) B47(0) B48(0) B49(2) B50(2)
 B51(2) B52(2) B53(0) B54(0) B55(0) B56(0) B57(2) B58(0) B59(2) B60(0)
 B61(2) B62(2) B63(0) B64(0) B65(0) B66(2) B67(2) B68(0) B69(0) B70(2)
 B71(2) B72(0) B73(0) B74(0) B75(0) B76(0) B77(0) B78(0) B79(2) B80(0)
 B81(0) B82(0) B83(0) B84(0) B85(0) B86(0) B87(2) B88(0) B89(0) B90(0)
 B91(0) B92(0) B93(0) B94(0) B95(0) B96(0) B97(0) B98(0)
Generals
 I117(1)
End
